
******************************************************************************
This program contains Ipopt, a library for large-scale nonlinear optimization.
 Ipopt is released as open source code under the Eclipse Public License (EPL).
         For more information visit http://projects.coin-or.org/Ipopt
******************************************************************************

This is Ipopt version 3.12.13, running with linear solver mumps.
NOTE: Other linear solvers might be more efficient (see Ipopt documentation).

Number of nonzeros in equality constraint Jacobian...:      367
Number of nonzeros in inequality constraint Jacobian.:      124
Number of nonzeros in Lagrangian Hessian.............:      145

Total number of variables............................:       86
                     variables with only lower bounds:       16
                variables with lower and upper bounds:       42
                     variables with only upper bounds:        0
Total number of equality constraints.................:       78
Total number of inequality constraints...............:       36
        inequality constraints with only lower bounds:        8
   inequality constraints with lower and upper bounds:        0
        inequality constraints with only upper bounds:       28

iter    objective    inf_pr   inf_du lg(mu)  ||d||  lg(rg) alpha_du alpha_pr  ls
   0  3.4129544e-06 2.74e+00 5.00e-01   0.0 0.00e+00    -  0.00e+00 0.00e+00   0
   1r 3.4129544e-06 2.74e+00 9.99e+02   0.1 0.00e+00    -  0.00e+00 1.65e-07R  2
   2r 3.4122041e-06 2.74e+00 9.99e+02  -4.8 3.10e-01    -  9.13e-02 1.02e-04f  1
   3r 2.9575735e-06 2.74e+00 8.54e+03  -1.0 1.02e+01    -  2.41e-02 9.74e-06f  1
   4r 3.0512121e-06 2.70e+00 8.29e+04  -1.0 2.84e-01    -  7.77e-01 1.22e-01f  1
   5r 9.0542947e-04 2.49e+00 9.77e+02  -0.7 5.80e-01    -  9.93e-01 1.00e+00f  1
   6r 2.1141190e-04 2.48e+00 3.53e+01  -1.3 2.15e-01    -  1.00e+00 1.00e+00f  1
   7r 1.1693622e-05 2.53e+00 4.01e+01  -2.3 1.19e-01    -  1.00e+00 1.00e+00f  1
   8r-5.8969695e-08 2.66e+00 2.67e+01  -3.4 1.41e-01    -  1.00e+00 9.84e-01f  1
   9r-5.0736991e-07 2.73e+00 1.55e+03  -3.8 6.72e-02    -  1.00e+00 9.24e-01f  1
iter    objective    inf_pr   inf_du lg(mu)  ||d||  lg(rg) alpha_du alpha_pr  ls
  10r-3.2136874e-07 2.74e+00 5.62e+01  -4.3 5.99e-02    -  1.00e+00 1.00e+00f  1
  11r-2.2315788e-07 2.74e+00 2.68e+00  -5.4 3.68e-02    -  1.00e+00 1.00e+00f  1
  12r-1.3422699e-07 2.74e+00 7.83e-02  -5.9 1.51e-02    -  1.00e+00 1.00e+00f  1
  13r-3.1820972e-08 2.74e+00 2.19e-02  -6.5 1.86e-02    -  1.00e+00 1.00e+00f  1
  14r-1.2061343e-08 2.74e+00 5.95e-03  -7.5 1.33e-02    -  1.00e+00 1.00e+00f  1
  15r-9.2941584e-09 2.74e+00 8.58e-04  -9.0 5.78e-03    -  1.00e+00 1.00e+00h  1
  16r-8.7644661e-09 2.74e+00 1.45e-02  -9.0 2.86e-03    -  1.00e+00 1.00e+00h  1
  17r-5.8696893e-09 2.74e+00 4.72e-03  -9.0 7.00e-03    -  1.00e+00 1.00e+00h  1
  18r-4.4974930e-09 2.74e+00 4.69e-05  -9.0 2.83e-03    -  1.00e+00 1.00e+00h  1
  19r-4.1421803e-09 2.74e+00 1.77e-07  -9.0 6.89e-04    -  1.00e+00 1.00e+00h  1

Number of Iterations....: 19

                                   (scaled)                 (unscaled)
Objective...............:  -4.1173517904789834e-09   -4.1173517904789834e-09
Dual infeasibility......:   7.4691623616712310e-01    7.4691623616712310e-01
Constraint violation....:   1.1944316098833563e+00    2.7364293030494333e+00
Complementarity.........:   1.0001184997934292e-09    1.0001184997934292e-09
Overall NLP error.......:   1.1944316098833563e+00    2.7364293030494333e+00


Number of objective function evaluations             = 23
Number of objective gradient evaluations             = 3
Number of equality constraint evaluations            = 23
Number of inequality constraint evaluations          = 23
Number of equality constraint Jacobian evaluations   = 22
Number of inequality constraint Jacobian evaluations = 22
Number of Lagrangian Hessian evaluations             = 20
Total CPU secs in IPOPT (w/o function evaluations)   =      0.017
Total CPU secs in NLP function evaluations           =      0.000

EXIT: Converged to a point of local infeasibility. Problem may be infeasible.
